words_hard_train/1003.qaiger
aag 154 24 0 1 130
2
4
8
12
16
20
24
28
32
34
48
50
58
60
68
70
82
84
96
98
110
112
124
126
308
6 3 5
10 6 9
14 10 13
18 14 17
22 18 21
26 22 25
30 27 28
36 32 35
38 33 34
40 37 39
42 31 41
44 30 40
46 43 45
52 49 51
54 48 50
56 53 55
62 58 60
64 56 62
66 65 55
72 69 71
74 68 70
76 73 75
78 67 76
80 79 75
86 83 85
88 82 84
90 87 89
92 81 90
94 93 89
100 97 99
102 96 98
104 101 103
106 95 104
108 107 103
114 111 113
116 110 112
118 115 117
120 109 118
122 121 117
128 125 127
130 124 126
132 129 131
134 123 132
136 135 131
138 47 136
140 46 137
142 139 141
144 59 61
146 145 63
148 146 2
150 149 5
152 148 4
154 57 63
156 155 65
158 153 157
160 151 159
162 66 77
164 163 79
166 161 165
168 167 8
170 160 164
172 169 171
174 80 91
176 175 93
178 173 176
180 179 13
182 172 177
184 181 183
186 94 105
188 187 107
190 185 189
192 191 16
194 184 188
196 193 195
198 108 119
200 199 121
202 197 200
204 203 21
206 196 201
208 205 207
210 122 133
212 211 135
214 213 25
216 212 24
218 215 217
220 208 218
222 221 217
224 143 222
226 142 223
228 225 227
230 7 28
232 167 171
234 231 232
236 230 233
238 235 237
240 28 2
242 241 156
244 240 157
246 243 245
248 246 147
250 238 248
252 11 28
254 179 183
256 253 254
258 252 255
260 257 259
262 250 260
264 228 262
266 19 28
268 203 207
270 266 269
272 267 268
274 271 273
276 15 28
278 191 195
280 277 278
282 276 279
284 281 283
286 274 284
288 23 28
290 288 24
292 289 25
294 291 293
296 209 219
298 297 221
300 295 298
302 286 301
304 294 299
306 302 305
308 264 306
i0 1 x1[0]
i1 1 x1[1]
i2 1 x1[2]
i3 1 x1[3]
i4 1 x1[4]
i5 1 x1[5]
i6 1 x1[6]
i7 1 x1[7]
i8 1 x2[7]
i9 2 y2[7]
i10 1 x2[1]
i11 2 y2[1]
i12 1 x2[0]
i13 2 y2[0]
i14 1 x2[2]
i15 2 y2[2]
i16 1 x2[3]
i17 2 y2[3]
i18 1 x2[4]
i19 2 y2[4]
i20 1 x2[5]
i21 2 y2[5]
i22 1 x2[6]
i23 2 y2[6]
o0 bool[0]
c
simplified
  ==
    add
      1 x1
      add
        1 x2
        2 y2
    abs
      1 x1
