words_hard_train/1003.qaiger.qdimacs
p cnf 154 391
a 1 2 34 4 6 8 41 10 12 14 16 48 55 24 29 62 0
e 3 5 7 9 11 13 15 17 18 19 20 21 22 23 25 26 27 28 30 31 32 33 35 36 37 38 39 40 42 43 44 45 46 47 49 50 51 52 53 54 56 57 58 59 60 61 63 64 65 66 67 68 69 70 71 72 73 74 75 76 77 78 79 80 81 82 83 84 85 86 87 88 89 90 91 92 93 94 95 96 97 98 99 100 101 102 103 104 105 106 107 108 109 110 111 112 113 114 115 116 117 118 119 120 121 122 123 124 125 126 127 128 129 130 131 132 133 134 135 136 137 138 139 140 141 142 143 144 145 146 147 148 149 150 151 152 153 154 0
1 2 3 0
-1 -3 0
-2 -3 0
-3 4 5 0
3 -5 0
-4 -5 0
-5 6 7 0
5 -7 0
-6 -7 0
-7 8 9 0
7 -9 0
-8 -9 0
-9 10 11 0
9 -11 0
-10 -11 0
-11 12 13 0
11 -13 0
-12 -13 0
13 -14 15 0
-13 -15 0
14 -15 0
-16 17 18 0
16 -18 0
-17 -18 0
16 -17 19 0
-16 -19 0
17 -19 0
18 19 20 0
-18 -20 0
-19 -20 0
15 20 21 0
-15 -21 0
-20 -21 0
-15 -20 22 0
15 -22 0
20 -22 0
21 22 23 0
-21 -23 0
-22 -23 0
24 25 26 0
-24 -26 0
-25 -26 0
-24 -25 27 0
24 -27 0
25 -27 0
26 27 28 0
-26 -28 0
-27 -28 0
-29 -30 31 0
29 -31 0
30 -31 0
-28 -31 32 0
28 -32 0
31 -32 0
32 27 33 0
-32 -33 0
-27 -33 0
34 35 36 0
-34 -36 0
-35 -36 0
-34 -35 37 0
34 -37 0
35 -37 0
36 37 38 0
-36 -38 0
-37 -38 0
33 -38 39 0
-33 -39 0
38 -39 0
39 37 40 0
-39 -40 0
-37 -40 0
41 42 43 0
-41 -43 0
-42 -43 0
-41 -42 44 0
41 -44 0
42 -44 0
43 44 45 0
-43 -45 0
-44 -45 0
40 -45 46 0
-40 -46 0
45 -46 0
46 44 47 0
-46 -47 0
-44 -47 0
48 49 50 0
-48 -50 0
-49 -50 0
-48 -49 51 0
48 -51 0
49 -51 0
50 51 52 0
-50 -52 0
-51 -52 0
47 -52 53 0
-47 -53 0
52 -53 0
53 51 54 0
-53 -54 0
-51 -54 0
55 56 57 0
-55 -57 0
-56 -57 0
-55 -56 58 0
55 -58 0
56 -58 0
57 58 59 0
-57 -59 0
-58 -59 0
54 -59 60 0
-54 -60 0
59 -60 0
60 58 61 0
-60 -61 0
-58 -61 0
62 63 64 0
-62 -64 0
-63 -64 0
-62 -63 65 0
62 -65 0
63 -65 0
64 65 66 0
-64 -66 0
-65 -66 0
61 -66 67 0
-61 -67 0
66 -67 0
67 65 68 0
-67 -68 0
-65 -68 0
23 -68 69 0
-23 -69 0
68 -69 0
-23 68 70 0
23 -70 0
-68 -70 0
69 70 71 0
-69 -71 0
-70 -71 0
29 30 72 0
-29 -72 0
-30 -72 0
72 31 73 0
-72 -73 0
-31 -73 0
-73 -1 74 0
73 -74 0
1 -74 0
74 2 75 0
-74 -75 0
-2 -75 0
-74 -2 76 0
74 -76 0
2 -76 0
28 31 77 0
-28 -77 0
-31 -77 0
77 32 78 0
-77 -78 0
-32 -78 0
76 78 79 0
-76 -79 0
-78 -79 0
75 79 80 0
-75 -80 0
-79 -80 0
-33 38 81 0
33 -81 0
-38 -81 0
81 39 82 0
-81 -82 0
-39 -82 0
80 82 83 0
-80 -83 0
-82 -83 0
83 -4 84 0
-83 -84 0
4 -84 0
-80 -82 85 0
80 -85 0
82 -85 0
84 85 86 0
-84 -86 0
-85 -86 0
-40 45 87 0
40 -87 0
-45 -87 0
87 46 88 0
-87 -88 0
-46 -88 0
86 -88 89 0
-86 -89 0
88 -89 0
89 6 90 0
-89 -90 0
-6 -90 0
-86 88 91 0
86 -91 0
-88 -91 0
90 91 92 0
-90 -92 0
-91 -92 0
-47 52 93 0
47 -93 0
-52 -93 0
93 53 94 0
-93 -94 0
-53 -94 0
92 94 95 0
-92 -95 0
-94 -95 0
95 -8 96 0
-95 -96 0
8 -96 0
-92 -94 97 0
92 -97 0
94 -97 0
96 97 98 0
-96 -98 0
-97 -98 0
-54 59 99 0
54 -99 0
-59 -99 0
99 60 100 0
-99 -100 0
-60 -100 0
98 -100 101 0
-98 -101 0
100 -101 0
101 10 102 0
-101 -102 0
-10 -102 0
-98 100 103 0
98 -103 0
-100 -103 0
102 103 104 0
-102 -104 0
-103 -104 0
-61 66 105 0
61 -105 0
-66 -105 0
105 67 106 0
-105 -106 0
-67 -106 0
106 12 107 0
-106 -107 0
-12 -107 0
-106 -12 108 0
106 -108 0
12 -108 0
107 108 109 0
-107 -109 0
-108 -109 0
-104 -109 110 0
104 -110 0
109 -110 0
110 108 111 0
-110 -111 0
-108 -111 0
71 -111 112 0
-71 -112 0
111 -112 0
-71 111 113 0
71 -113 0
-111 -113 0
112 113 114 0
-112 -114 0
-113 -114 0
3 -14 115 0
-3 -115 0
14 -115 0
83 85 116 0
-83 -116 0
-85 -116 0
115 -116 117 0
-115 -117 0
116 -117 0
-115 116 118 0
115 -118 0
-116 -118 0
117 118 119 0
-117 -119 0
-118 -119 0
-14 -1 120 0
14 -120 0
1 -120 0
120 -78 121 0
-120 -121 0
78 -121 0
-120 78 122 0
120 -122 0
-78 -122 0
121 122 123 0
-121 -123 0
-122 -123 0
-123 73 124 0
123 -124 0
-73 -124 0
-119 -124 125 0
119 -125 0
124 -125 0
5 -14 126 0
-5 -126 0
14 -126 0
89 91 127 0
-89 -127 0
-91 -127 0
126 -127 128 0
-126 -128 0
127 -128 0
-126 127 129 0
126 -129 0
-127 -129 0
128 129 130 0
-128 -130 0
-129 -130 0
-125 -130 131 0
125 -131 0
130 -131 0
-114 -131 132 0
114 -132 0
131 -132 0
9 -14 133 0
-9 -133 0
14 -133 0
101 103 134 0
-101 -134 0
-103 -134 0
-133 134 135 0
133 -135 0
-134 -135 0
133 -134 136 0
-133 -136 0
134 -136 0
135 136 137 0
-135 -137 0
-136 -137 0
7 -14 138 0
-7 -138 0
14 -138 0
95 97 139 0
-95 -139 0
-97 -139 0
138 -139 140 0
-138 -140 0
139 -140 0
-138 139 141 0
138 -141 0
-139 -141 0
140 141 142 0
-140 -142 0
-141 -142 0
-137 -142 143 0
137 -143 0
142 -143 0
11 -14 144 0
-11 -144 0
14 -144 0
-144 -12 145 0
144 -145 0
12 -145 0
144 12 146 0
-144 -146 0
-12 -146 0
145 146 147 0
-145 -147 0
-146 -147 0
104 109 148 0
-104 -148 0
-109 -148 0
148 110 149 0
-148 -149 0
-110 -149 0
147 -149 150 0
-147 -150 0
149 -150 0
-143 150 151 0
143 -151 0
-150 -151 0
-147 149 152 0
147 -152 0
-149 -152 0
-151 152 153 0
151 -153 0
-152 -153 0
-132 -153 154 0
132 -154 0
153 -154 0
154 0
